12
0 0 1 2 0 3 0 4 3 5 6 1 1 4 6 1 4 7 8 9 3 4 7 2 3 3 6 9 3 2 1 2 5 7 10 6 2 7 2 7 10 9 6 10 6 4 9 6 9 10 1 2 3 5 9 8 7 4 5 3 8 8 1 10 1 1 8 9 8 7 3 4 0 3 10 11 10 0 10 10 0 1 6 0 8 0 6 11 5 0 11 9 4 1 2 7 5 10 6 10 
